benchmarks/bfuzz0/1646227837250127985290653591799620817.smt2
(set-logic QF_FP)
(declare-const x0 (_ FloatingPoint 8 24))
(declare-const x1 (_ FloatingPoint 8 24))
(declare-const x2 (_ FloatingPoint 8 24))
(declare-const x3 (_ FloatingPoint 8 24))
(declare-const x4 (_ FloatingPoint 8 24))
(declare-const x5 (_ FloatingPoint 8 24))
(declare-const x6 (_ FloatingPoint 8 24))
(declare-const x7 (_ FloatingPoint 8 24))
(declare-const x8 (_ FloatingPoint 8 24))
(declare-const x9 (_ FloatingPoint 8 24))
(declare-const x10 (_ FloatingPoint 8 24))
(declare-const x11 (_ FloatingPoint 8 24))
(declare-const x12 (_ FloatingPoint 8 24))
(declare-const x13 (_ FloatingPoint 8 24))
(declare-const x14 (_ FloatingPoint 8 24))
(declare-const x15 (_ FloatingPoint 8 24))
(declare-const x16 (_ FloatingPoint 8 24))
(declare-const x17 (_ FloatingPoint 8 24))
(declare-const x18 (_ FloatingPoint 8 24))
(assert (fp.gt (fp.add RNE (fp.div RNE (fp.div RNE x16 x13) (fp.neg x6)) (fp.neg (fp.mul RNE x10 x10))) (fp.div RNE (fp.div RNE (fp.mul RNE x8 x8) (fp.mul RNE x14 x4)) (fp.mul RNE (fp.mul RNE x7 x0) (fp.add RNE x16 x18)))))
(assert (fp.lt (fp.mul RNE (fp.sub RNE (fp.neg x8) (fp.add RNE x15 x1)) (fp.neg (fp.add RNE x1 x5))) (fp.add RNE (fp.sub RNE (fp.div RNE x16 x4) (fp.mul RNE x4 x5)) (fp.mul RNE (fp.neg x10) (fp.neg x8)))))
(check-sat)
