db/data/1646227837250127985290653591799620817.z3.out
sat
-------------------
328.369815047
